c User generated cnf file
p cnf 8 23
-8 2 1 0 
3 2 -6 0 
3 5 -3 0 
2 1 -7 0 
6 1 -1 0 
-2 2 7 0 
-7 7 8 0 
8 -1 1 0 
-6 1 3 0 
-1 3 2 0 
4 5 -4 0 
5 1 -5 0 
-7 5 1 0 
8 4 -5 0 
-8 8 8 0 
3 -2 4 0 
2 -7 1 0 
4 -3 3 0 
6 -8 1 0 
7 4 -7 0 
4 8 -7 0 
2 -1 3 0 
-8 4 4 0 
